letting n =  10
letting blocks =  [[1, 3], [1, 4], [1, 5], [1, 6], [1, 7], [2, 2], [2, 3], [2, 5], [2, 8], [2, 10], [3, 1], [3, 3], [3, 5], [3, 7], [3, 9], [3, 10], [4, 1], [4, 3], [4, 4], [4, 7], [4, 8], [4, 10], [5, 3], [5, 4], [5, 5], [5, 6], [5, 9], [5, 10], [6, 1], [6, 2], [6, 4], [6, 6], [6, 7], [6, 9], [7, 1], [7, 5], [7, 6], [7, 8], [7, 9], [8, 1], [8, 3], [8, 6], [8, 8], [8, 10], [9, 1], [9, 2], [9, 4], [9, 6], [9, 8], [9, 9], [10, 4], [10, 5], [10, 7], [10, 8], [10, 9], [10, 10]]
